	Costo	Iter.	Tiempo
1	530,75	202	25,58
2	868,01	243	49,159
3	863,85	124	60,458
4	1090,57	229	265,952
5	1401,12	321	658,186
6	560,96	237	30,47
7	945,58	297	751,698
8	907,04	253	709,938
9	1239,56	131	4368,465
10	1490,5	117	10383,26
11	1233,13	200	168,898
12	848,69	203	91,583
13	1667,94	146	127,87
14	885,38	233	118,555
